
******************************************************************************
This program contains Ipopt, a library for large-scale nonlinear optimization.
 Ipopt is released as open source code under the Eclipse Public License (EPL).
         For more information visit http://projects.coin-or.org/Ipopt
******************************************************************************

This is Ipopt version 3.12.6, running with linear solver ma57.

Number of nonzeros in equality constraint Jacobian...:    43924
Number of nonzeros in inequality constraint Jacobian.:     2000
Number of nonzeros in Lagrangian Hessian.............:    50888

Total number of variables............................:     5991
                     variables with only lower bounds:        1
                variables with lower and upper bounds:     1998
                     variables with only upper bounds:        0
Total number of equality constraints.................:     3996
Total number of inequality constraints...............:     1000
        inequality constraints with only lower bounds:        0
   inequality constraints with lower and upper bounds:        0
        inequality constraints with only upper bounds:     1000

iter    objective    inf_pr   inf_du lg(mu)  ||d||  lg(rg) alpha_du alpha_pr  ls
   0  1.0100000e+00 1.35e+03 0.00e+00  -1.0 0.00e+00    -  0.00e+00 0.00e+00   0
   1  1.7732343e+00 1.23e+03 1.35e+02  -1.0 9.05e+00    -  1.10e-03 8.43e-02h  4
   2  1.0653899e+01 2.93e+00 3.20e+01  -1.0 8.88e+00    -  9.64e-01 1.00e+00h  1
   3  1.0063126e+01 2.35e-01 4.37e-02  -1.0 5.91e-01    -  1.00e+00 1.00e+00h  1
   4  2.8185241e+00 2.38e+00 8.36e-01  -2.5 7.24e+00    -  8.85e-01 1.00e+00f  1
   5  5.8824711e+00 4.53e-01 1.05e-01  -2.5 3.06e+00    -  3.95e-01 1.00e+00h  1
   6  2.4197909e+00 1.32e+00 7.64e-01  -2.5 4.02e+00    -  1.00e+00 1.00e+00H  1
   7  4.0107759e+00 6.08e-01 1.89e-01  -2.5 1.59e+00    -  1.00e+00 1.00e+00h  1
   8  4.1786501e+00 4.08e-02 5.92e-02  -2.5 1.83e-01    -  1.00e+00 1.00e+00h  1
   9  4.2246246e+00 3.91e-03 1.15e-02  -2.5 8.71e-02    -  1.00e+00 1.00e+00h  1
iter    objective    inf_pr   inf_du lg(mu)  ||d||  lg(rg) alpha_du alpha_pr  ls
  10  2.4023314e+00 1.01e+00 5.95e-01  -3.8 1.82e+00    -  8.32e-01 1.00e+00f  1
  11  3.0261801e+00 1.85e-01 4.41e-03  -3.8 6.24e-01    -  7.90e-01 1.00e+00h  1
  12  2.7562460e+00 1.24e-01 1.31e-01  -3.8 4.09e-01    -  1.00e+00 1.00e+00h  1
  13  2.8319516e+00 9.65e-03 2.55e-02  -3.8 7.57e-02    -  1.00e+00 1.00e+00h  1
  14  2.8307292e+00 3.50e-05 1.59e-03  -3.8 2.87e-02    -  1.00e+00 1.00e+00h  1
  15  2.8313754e+00 1.48e-06 3.39e-04  -3.8 1.95e-03    -  1.00e+00 1.00e+00h  1
  16  2.6674125e+00 7.73e-02 8.49e-02  -5.7 4.86e-01    -  8.14e-01 8.59e-01f  1
  17  2.6673282e+00 1.08e-01 1.72e-02  -5.7 7.41e-01    -  7.70e-01 8.67e-01h  1
  18  2.6673713e+00 1.54e-01 6.72e-03  -5.7 1.07e+00    -  9.14e-01 6.36e-01h  1
  19  2.6677458e+00 1.01e-01 1.67e-03  -5.7 9.55e-01    -  1.00e+00 7.47e-01h  1
iter    objective    inf_pr   inf_du lg(mu)  ||d||  lg(rg) alpha_du alpha_pr  ls
  20  2.6679386e+00 1.54e-04 5.49e-05  -5.7 7.44e-01    -  1.00e+00 1.00e+00h  1
  21  2.6679423e+00 9.79e-07 2.25e-06  -5.7 3.23e-01    -  1.00e+00 1.00e+00h  1
  22  2.6679418e+00 1.56e-08 2.61e-07  -5.7 8.40e-02    -  1.00e+00 1.00e+00h  1
  23  2.6679418e+00 8.37e-11 2.52e-08  -5.7 4.40e-03    -  1.00e+00 1.00e+00h  1
  24  2.6663006e+00 1.82e-02 9.00e-04  -8.6 4.64e-01    -  8.58e-01 8.75e-01h  1
  25  2.6661419e+00 2.63e-02 3.27e-04  -8.6 2.42e-01    -  9.30e-01 7.34e-01h  1
  26  2.6660847e+00 2.74e-05 3.12e-05  -8.6 1.65e-02    -  9.91e-01 1.00e+00h  1
  27  2.6660847e+00 1.36e-12 2.52e-09  -8.6 6.02e-04    -  1.00e+00 1.00e+00h  1

Number of Iterations....: 27

                                   (scaled)                 (unscaled)
Objective...............:   2.6660846655632642e+00    2.6660846655632642e+00
Dual infeasibility......:   2.5203863772501256e-09    2.5203863772501256e-09
Constraint violation....:   9.0976685967539924e-14    1.3633538742396922e-12
Complementarity.........:   2.5090752065166880e-09    2.5090752065166880e-09
Overall NLP error.......:   2.5203863772501256e-09    2.5203863772501256e-09


Number of objective function evaluations             = 34
Number of objective gradient evaluations             = 28
Number of equality constraint evaluations            = 34
Number of inequality constraint evaluations          = 34
Number of equality constraint Jacobian evaluations   = 28
Number of inequality constraint Jacobian evaluations = 28
Number of Lagrangian Hessian evaluations             = 27
Total CPU secs in IPOPT (w/o function evaluations)   =      0.223
Total CPU secs in NLP function evaluations           =      0.193

EXIT: Optimal Solution Found.

************************ CUTEst statistics ************************


 Package used            :  IPOPT
 Problem                 :  CAR2      
 # variables             =            5999
 # constraints           =            4996
 # objective functions   =        0.6300000E+02
 # objective gradients   =        0.2900000E+02
 # objective Hessians    =        0.2800000E+02
 # Hessian-vector prdct  =        0.0000000E+00
 # constraints functions =        0.6400000E+02
 # constraints gradients =        0.3000000E+02
 # constraints Hessians  =        0.2800000E+02
 Exit code               =               0
 Final f                 =   0.2666085E+01
 Set up time             =            0.29 seconds
 Solve time              =            0.45 seconds


******************************************************************

System Time =       0.4230000079 s.
